c Questo file rappresenta un grafo con 1000 nodi e 999 archi, in cui
c i nodi sono connessi a formare una catena. Se per errore si parallelizza
c il ciclo "for" piu' esterno dell'algoritmo SSSP, questo grafo dovrebbe
c dimostrare che la parallelizzazione non funziona, in quanto mostra che
c la distanza dell'ultimo nodo dal primo e' +inf anziche' 999
p sp 1000 999
a 1 2 1
a 2 3 1
a 3 4 1
a 4 5 1
a 5 6 1
a 6 7 1
a 7 8 1
a 8 9 1
a 9 10 1
a 10 11 1
a 11 12 1
a 12 13 1
a 13 14 1
a 14 15 1
a 15 16 1
a 16 17 1
a 17 18 1
a 18 19 1
a 19 20 1
a 20 21 1
a 21 22 1
a 22 23 1
a 23 24 1
a 24 25 1
a 25 26 1
a 26 27 1
a 27 28 1
a 28 29 1
a 29 30 1
a 30 31 1
a 31 32 1
a 32 33 1
a 33 34 1
a 34 35 1
a 35 36 1
a 36 37 1
a 37 38 1
a 38 39 1
a 39 40 1
a 40 41 1
a 41 42 1
a 42 43 1
a 43 44 1
a 44 45 1
a 45 46 1
a 46 47 1
a 47 48 1
a 48 49 1
a 49 50 1
a 50 51 1
a 51 52 1
a 52 53 1
a 53 54 1
a 54 55 1
a 55 56 1
a 56 57 1
a 57 58 1
a 58 59 1
a 59 60 1
a 60 61 1
a 61 62 1
a 62 63 1
a 63 64 1
a 64 65 1
a 65 66 1
a 66 67 1
a 67 68 1
a 68 69 1
a 69 70 1
a 70 71 1
a 71 72 1
a 72 73 1
a 73 74 1
a 74 75 1
a 75 76 1
a 76 77 1
a 77 78 1
a 78 79 1
a 79 80 1
a 80 81 1
a 81 82 1
a 82 83 1
a 83 84 1
a 84 85 1
a 85 86 1
a 86 87 1
a 87 88 1
a 88 89 1
a 89 90 1
a 90 91 1
a 91 92 1
a 92 93 1
a 93 94 1
a 94 95 1
a 95 96 1
a 96 97 1
a 97 98 1
a 98 99 1
a 99 100 1
a 100 101 1
a 101 102 1
a 102 103 1
a 103 104 1
a 104 105 1
a 105 106 1
a 106 107 1
a 107 108 1
a 108 109 1
a 109 110 1
a 110 111 1
a 111 112 1
a 112 113 1
a 113 114 1
a 114 115 1
a 115 116 1
a 116 117 1
a 117 118 1
a 118 119 1
a 119 120 1
a 120 121 1
a 121 122 1
a 122 123 1
a 123 124 1
a 124 125 1
a 125 126 1
a 126 127 1
a 127 128 1
a 128 129 1
a 129 130 1
a 130 131 1
a 131 132 1
a 132 133 1
a 133 134 1
a 134 135 1
a 135 136 1
a 136 137 1
a 137 138 1
a 138 139 1
a 139 140 1
a 140 141 1
a 141 142 1
a 142 143 1
a 143 144 1
a 144 145 1
a 145 146 1
a 146 147 1
a 147 148 1
a 148 149 1
a 149 150 1
a 150 151 1
a 151 152 1
a 152 153 1
a 153 154 1
a 154 155 1
a 155 156 1
a 156 157 1
a 157 158 1
a 158 159 1
a 159 160 1
a 160 161 1
a 161 162 1
a 162 163 1
a 163 164 1
a 164 165 1
a 165 166 1
a 166 167 1
a 167 168 1
a 168 169 1
a 169 170 1
a 170 171 1
a 171 172 1
a 172 173 1
a 173 174 1
a 174 175 1
a 175 176 1
a 176 177 1
a 177 178 1
a 178 179 1
a 179 180 1
a 180 181 1
a 181 182 1
a 182 183 1
a 183 184 1
a 184 185 1
a 185 186 1
a 186 187 1
a 187 188 1
a 188 189 1
a 189 190 1
a 190 191 1
a 191 192 1
a 192 193 1
a 193 194 1
a 194 195 1
a 195 196 1
a 196 197 1
a 197 198 1
a 198 199 1
a 199 200 1
a 200 201 1
a 201 202 1
a 202 203 1
a 203 204 1
a 204 205 1
a 205 206 1
a 206 207 1
a 207 208 1
a 208 209 1
a 209 210 1
a 210 211 1
a 211 212 1
a 212 213 1
a 213 214 1
a 214 215 1
a 215 216 1
a 216 217 1
a 217 218 1
a 218 219 1
a 219 220 1
a 220 221 1
a 221 222 1
a 222 223 1
a 223 224 1
a 224 225 1
a 225 226 1
a 226 227 1
a 227 228 1
a 228 229 1
a 229 230 1
a 230 231 1
a 231 232 1
a 232 233 1
a 233 234 1
a 234 235 1
a 235 236 1
a 236 237 1
a 237 238 1
a 238 239 1
a 239 240 1
a 240 241 1
a 241 242 1
a 242 243 1
a 243 244 1
a 244 245 1
a 245 246 1
a 246 247 1
a 247 248 1
a 248 249 1
a 249 250 1
a 250 251 1
a 251 252 1
a 252 253 1
a 253 254 1
a 254 255 1
a 255 256 1
a 256 257 1
a 257 258 1
a 258 259 1
a 259 260 1
a 260 261 1
a 261 262 1
a 262 263 1
a 263 264 1
a 264 265 1
a 265 266 1
a 266 267 1
a 267 268 1
a 268 269 1
a 269 270 1
a 270 271 1
a 271 272 1
a 272 273 1
a 273 274 1
a 274 275 1
a 275 276 1
a 276 277 1
a 277 278 1
a 278 279 1
a 279 280 1
a 280 281 1
a 281 282 1
a 282 283 1
a 283 284 1
a 284 285 1
a 285 286 1
a 286 287 1
a 287 288 1
a 288 289 1
a 289 290 1
a 290 291 1
a 291 292 1
a 292 293 1
a 293 294 1
a 294 295 1
a 295 296 1
a 296 297 1
a 297 298 1
a 298 299 1
a 299 300 1
a 300 301 1
a 301 302 1
a 302 303 1
a 303 304 1
a 304 305 1
a 305 306 1
a 306 307 1
a 307 308 1
a 308 309 1
a 309 310 1
a 310 311 1
a 311 312 1
a 312 313 1
a 313 314 1
a 314 315 1
a 315 316 1
a 316 317 1
a 317 318 1
a 318 319 1
a 319 320 1
a 320 321 1
a 321 322 1
a 322 323 1
a 323 324 1
a 324 325 1
a 325 326 1
a 326 327 1
a 327 328 1
a 328 329 1
a 329 330 1
a 330 331 1
a 331 332 1
a 332 333 1
a 333 334 1
a 334 335 1
a 335 336 1
a 336 337 1
a 337 338 1
a 338 339 1
a 339 340 1
a 340 341 1
a 341 342 1
a 342 343 1
a 343 344 1
a 344 345 1
a 345 346 1
a 346 347 1
a 347 348 1
a 348 349 1
a 349 350 1
a 350 351 1
a 351 352 1
a 352 353 1
a 353 354 1
a 354 355 1
a 355 356 1
a 356 357 1
a 357 358 1
a 358 359 1
a 359 360 1
a 360 361 1
a 361 362 1
a 362 363 1
a 363 364 1
a 364 365 1
a 365 366 1
a 366 367 1
a 367 368 1
a 368 369 1
a 369 370 1
a 370 371 1
a 371 372 1
a 372 373 1
a 373 374 1
a 374 375 1
a 375 376 1
a 376 377 1
a 377 378 1
a 378 379 1
a 379 380 1
a 380 381 1
a 381 382 1
a 382 383 1
a 383 384 1
a 384 385 1
a 385 386 1
a 386 387 1
a 387 388 1
a 388 389 1
a 389 390 1
a 390 391 1
a 391 392 1
a 392 393 1
a 393 394 1
a 394 395 1
a 395 396 1
a 396 397 1
a 397 398 1
a 398 399 1
a 399 400 1
a 400 401 1
a 401 402 1
a 402 403 1
a 403 404 1
a 404 405 1
a 405 406 1
a 406 407 1
a 407 408 1
a 408 409 1
a 409 410 1
a 410 411 1
a 411 412 1
a 412 413 1
a 413 414 1
a 414 415 1
a 415 416 1
a 416 417 1
a 417 418 1
a 418 419 1
a 419 420 1
a 420 421 1
a 421 422 1
a 422 423 1
a 423 424 1
a 424 425 1
a 425 426 1
a 426 427 1
a 427 428 1
a 428 429 1
a 429 430 1
a 430 431 1
a 431 432 1
a 432 433 1
a 433 434 1
a 434 435 1
a 435 436 1
a 436 437 1
a 437 438 1
a 438 439 1
a 439 440 1
a 440 441 1
a 441 442 1
a 442 443 1
a 443 444 1
a 444 445 1
a 445 446 1
a 446 447 1
a 447 448 1
a 448 449 1
a 449 450 1
a 450 451 1
a 451 452 1
a 452 453 1
a 453 454 1
a 454 455 1
a 455 456 1
a 456 457 1
a 457 458 1
a 458 459 1
a 459 460 1
a 460 461 1
a 461 462 1
a 462 463 1
a 463 464 1
a 464 465 1
a 465 466 1
a 466 467 1
a 467 468 1
a 468 469 1
a 469 470 1
a 470 471 1
a 471 472 1
a 472 473 1
a 473 474 1
a 474 475 1
a 475 476 1
a 476 477 1
a 477 478 1
a 478 479 1
a 479 480 1
a 480 481 1
a 481 482 1
a 482 483 1
a 483 484 1
a 484 485 1
a 485 486 1
a 486 487 1
a 487 488 1
a 488 489 1
a 489 490 1
a 490 491 1
a 491 492 1
a 492 493 1
a 493 494 1
a 494 495 1
a 495 496 1
a 496 497 1
a 497 498 1
a 498 499 1
a 499 500 1
a 500 501 1
a 501 502 1
a 502 503 1
a 503 504 1
a 504 505 1
a 505 506 1
a 506 507 1
a 507 508 1
a 508 509 1
a 509 510 1
a 510 511 1
a 511 512 1
a 512 513 1
a 513 514 1
a 514 515 1
a 515 516 1
a 516 517 1
a 517 518 1
a 518 519 1
a 519 520 1
a 520 521 1
a 521 522 1
a 522 523 1
a 523 524 1
a 524 525 1
a 525 526 1
a 526 527 1
a 527 528 1
a 528 529 1
a 529 530 1
a 530 531 1
a 531 532 1
a 532 533 1
a 533 534 1
a 534 535 1
a 535 536 1
a 536 537 1
a 537 538 1
a 538 539 1
a 539 540 1
a 540 541 1
a 541 542 1
a 542 543 1
a 543 544 1
a 544 545 1
a 545 546 1
a 546 547 1
a 547 548 1
a 548 549 1
a 549 550 1
a 550 551 1
a 551 552 1
a 552 553 1
a 553 554 1
a 554 555 1
a 555 556 1
a 556 557 1
a 557 558 1
a 558 559 1
a 559 560 1
a 560 561 1
a 561 562 1
a 562 563 1
a 563 564 1
a 564 565 1
a 565 566 1
a 566 567 1
a 567 568 1
a 568 569 1
a 569 570 1
a 570 571 1
a 571 572 1
a 572 573 1
a 573 574 1
a 574 575 1
a 575 576 1
a 576 577 1
a 577 578 1
a 578 579 1
a 579 580 1
a 580 581 1
a 581 582 1
a 582 583 1
a 583 584 1
a 584 585 1
a 585 586 1
a 586 587 1
a 587 588 1
a 588 589 1
a 589 590 1
a 590 591 1
a 591 592 1
a 592 593 1
a 593 594 1
a 594 595 1
a 595 596 1
a 596 597 1
a 597 598 1
a 598 599 1
a 599 600 1
a 600 601 1
a 601 602 1
a 602 603 1
a 603 604 1
a 604 605 1
a 605 606 1
a 606 607 1
a 607 608 1
a 608 609 1
a 609 610 1
a 610 611 1
a 611 612 1
a 612 613 1
a 613 614 1
a 614 615 1
a 615 616 1
a 616 617 1
a 617 618 1
a 618 619 1
a 619 620 1
a 620 621 1
a 621 622 1
a 622 623 1
a 623 624 1
a 624 625 1
a 625 626 1
a 626 627 1
a 627 628 1
a 628 629 1
a 629 630 1
a 630 631 1
a 631 632 1
a 632 633 1
a 633 634 1
a 634 635 1
a 635 636 1
a 636 637 1
a 637 638 1
a 638 639 1
a 639 640 1
a 640 641 1
a 641 642 1
a 642 643 1
a 643 644 1
a 644 645 1
a 645 646 1
a 646 647 1
a 647 648 1
a 648 649 1
a 649 650 1
a 650 651 1
a 651 652 1
a 652 653 1
a 653 654 1
a 654 655 1
a 655 656 1
a 656 657 1
a 657 658 1
a 658 659 1
a 659 660 1
a 660 661 1
a 661 662 1
a 662 663 1
a 663 664 1
a 664 665 1
a 665 666 1
a 666 667 1
a 667 668 1
a 668 669 1
a 669 670 1
a 670 671 1
a 671 672 1
a 672 673 1
a 673 674 1
a 674 675 1
a 675 676 1
a 676 677 1
a 677 678 1
a 678 679 1
a 679 680 1
a 680 681 1
a 681 682 1
a 682 683 1
a 683 684 1
a 684 685 1
a 685 686 1
a 686 687 1
a 687 688 1
a 688 689 1
a 689 690 1
a 690 691 1
a 691 692 1
a 692 693 1
a 693 694 1
a 694 695 1
a 695 696 1
a 696 697 1
a 697 698 1
a 698 699 1
a 699 700 1
a 700 701 1
a 701 702 1
a 702 703 1
a 703 704 1
a 704 705 1
a 705 706 1
a 706 707 1
a 707 708 1
a 708 709 1
a 709 710 1
a 710 711 1
a 711 712 1
a 712 713 1
a 713 714 1
a 714 715 1
a 715 716 1
a 716 717 1
a 717 718 1
a 718 719 1
a 719 720 1
a 720 721 1
a 721 722 1
a 722 723 1
a 723 724 1
a 724 725 1
a 725 726 1
a 726 727 1
a 727 728 1
a 728 729 1
a 729 730 1
a 730 731 1
a 731 732 1
a 732 733 1
a 733 734 1
a 734 735 1
a 735 736 1
a 736 737 1
a 737 738 1
a 738 739 1
a 739 740 1
a 740 741 1
a 741 742 1
a 742 743 1
a 743 744 1
a 744 745 1
a 745 746 1
a 746 747 1
a 747 748 1
a 748 749 1
a 749 750 1
a 750 751 1
a 751 752 1
a 752 753 1
a 753 754 1
a 754 755 1
a 755 756 1
a 756 757 1
a 757 758 1
a 758 759 1
a 759 760 1
a 760 761 1
a 761 762 1
a 762 763 1
a 763 764 1
a 764 765 1
a 765 766 1
a 766 767 1
a 767 768 1
a 768 769 1
a 769 770 1
a 770 771 1
a 771 772 1
a 772 773 1
a 773 774 1
a 774 775 1
a 775 776 1
a 776 777 1
a 777 778 1
a 778 779 1
a 779 780 1
a 780 781 1
a 781 782 1
a 782 783 1
a 783 784 1
a 784 785 1
a 785 786 1
a 786 787 1
a 787 788 1
a 788 789 1
a 789 790 1
a 790 791 1
a 791 792 1
a 792 793 1
a 793 794 1
a 794 795 1
a 795 796 1
a 796 797 1
a 797 798 1
a 798 799 1
a 799 800 1
a 800 801 1
a 801 802 1
a 802 803 1
a 803 804 1
a 804 805 1
a 805 806 1
a 806 807 1
a 807 808 1
a 808 809 1
a 809 810 1
a 810 811 1
a 811 812 1
a 812 813 1
a 813 814 1
a 814 815 1
a 815 816 1
a 816 817 1
a 817 818 1
a 818 819 1
a 819 820 1
a 820 821 1
a 821 822 1
a 822 823 1
a 823 824 1
a 824 825 1
a 825 826 1
a 826 827 1
a 827 828 1
a 828 829 1
a 829 830 1
a 830 831 1
a 831 832 1
a 832 833 1
a 833 834 1
a 834 835 1
a 835 836 1
a 836 837 1
a 837 838 1
a 838 839 1
a 839 840 1
a 840 841 1
a 841 842 1
a 842 843 1
a 843 844 1
a 844 845 1
a 845 846 1
a 846 847 1
a 847 848 1
a 848 849 1
a 849 850 1
a 850 851 1
a 851 852 1
a 852 853 1
a 853 854 1
a 854 855 1
a 855 856 1
a 856 857 1
a 857 858 1
a 858 859 1
a 859 860 1
a 860 861 1
a 861 862 1
a 862 863 1
a 863 864 1
a 864 865 1
a 865 866 1
a 866 867 1
a 867 868 1
a 868 869 1
a 869 870 1
a 870 871 1
a 871 872 1
a 872 873 1
a 873 874 1
a 874 875 1
a 875 876 1
a 876 877 1
a 877 878 1
a 878 879 1
a 879 880 1
a 880 881 1
a 881 882 1
a 882 883 1
a 883 884 1
a 884 885 1
a 885 886 1
a 886 887 1
a 887 888 1
a 888 889 1
a 889 890 1
a 890 891 1
a 891 892 1
a 892 893 1
a 893 894 1
a 894 895 1
a 895 896 1
a 896 897 1
a 897 898 1
a 898 899 1
a 899 900 1
a 900 901 1
a 901 902 1
a 902 903 1
a 903 904 1
a 904 905 1
a 905 906 1
a 906 907 1
a 907 908 1
a 908 909 1
a 909 910 1
a 910 911 1
a 911 912 1
a 912 913 1
a 913 914 1
a 914 915 1
a 915 916 1
a 916 917 1
a 917 918 1
a 918 919 1
a 919 920 1
a 920 921 1
a 921 922 1
a 922 923 1
a 923 924 1
a 924 925 1
a 925 926 1
a 926 927 1
a 927 928 1
a 928 929 1
a 929 930 1
a 930 931 1
a 931 932 1
a 932 933 1
a 933 934 1
a 934 935 1
a 935 936 1
a 936 937 1
a 937 938 1
a 938 939 1
a 939 940 1
a 940 941 1
a 941 942 1
a 942 943 1
a 943 944 1
a 944 945 1
a 945 946 1
a 946 947 1
a 947 948 1
a 948 949 1
a 949 950 1
a 950 951 1
a 951 952 1
a 952 953 1
a 953 954 1
a 954 955 1
a 955 956 1
a 956 957 1
a 957 958 1
a 958 959 1
a 959 960 1
a 960 961 1
a 961 962 1
a 962 963 1
a 963 964 1
a 964 965 1
a 965 966 1
a 966 967 1
a 967 968 1
a 968 969 1
a 969 970 1
a 970 971 1
a 971 972 1
a 972 973 1
a 973 974 1
a 974 975 1
a 975 976 1
a 976 977 1
a 977 978 1
a 978 979 1
a 979 980 1
a 980 981 1
a 981 982 1
a 982 983 1
a 983 984 1
a 984 985 1
a 985 986 1
a 986 987 1
a 987 988 1
a 988 989 1
a 989 990 1
a 990 991 1
a 991 992 1
a 992 993 1
a 993 994 1
a 994 995 1
a 995 996 1
a 996 997 1
a 997 998 1
a 998 999 1
a 999 1000 1
